results/x-10M/X-n162-k11.vrp_seed-7.out
14147	11251
