results/x-10M/X-n162-k11.vrp_seed-7.vrp.sol
Route #1: 74 81 120 5 16 32 57 131 37 71 13 6 49 24 23
Route #2: 59 156 115 141 119 144 105 10 29
Route #3: 54 76 41 61 46 69 65 70 113 63 104 83 98 47 25
Route #4: 8 42 51 12 64 18 19 3 33 75 44 7 34 22 78
Route #5: 155 92 125 93 132 87 4 101 151 146 39 137 108 158 91 136
Route #6: 52 116 102 96 142 43 123 56 66 94 36 35 99 130 86 53
Route #7: 103 40 112 157 30 118 82 2 109 148 134 124 128 110 153 143
Route #8: 127 17 149 89 14 1 55 60 21 9 27 117 97 77 161
Route #9: 79 20 67 62 114 95 129 88 106 100 31 140 154 111 80
Route #10: 150 90 145 68 58 38 73 11 48 26 28 152 45 50
Route #11: 15 139 126 138 133 107 122 84 160 85 121 147 159 135 72
Cost 14147.000000